243/surrogate_problem/sol/surrogate2_12.sol
# Solution for model problem_
# Objective value = 9.8664260354238737e+04
x(0_0) 0
x(0_1) 0
x(0_2) 0
x(0_3) 0
x(0_4) 0
x(0_5) 0
x(0_6) 0
x(0_7) 0
x(0_8) 0
x(0_9) 0
x(0_10) 0
x(0_11) 0
x(0_12) 0
x(0_13) 0
x(0_14) 1
x(0_15) 0
x(0_16) 0
x(0_17) 0
x(0_18) 0
x(1_19) 0
x(1_20) 0
x(1_21) 0
x(1_22) 0
x(1_23) 0
x(1_24) 0
x(1_25) 1
x(1_26) 0
x(1_27) 0
x(1_28) 0
x(2_29) 0
x(2_30) 0
x(2_31) 0
x(2_32) 0
x(2_33) 0
x(2_34) 0
x(2_35) 0
x(2_36) 0
x(2_37) 0
x(2_38) 0
x(2_39) 0
x(2_40) 0
x(2_41) 0
x(2_42) 0
x(2_43) 1
x(2_44) 0
x(2_45) 0
x(2_46) 0
x(2_47) 0
x(2_48) 0
x(3_49) 0
x(3_50) 0
x(3_51) 0
x(3_52) 0
x(3_53) 0
x(3_54) 0
x(3_55) 0
x(3_56) 0
x(3_57) 0
x(3_58) 0
x(3_59) 1
x(3_60) 0
x(3_61) 0
x(3_62) 0
x(3_63) 0
x(3_64) 0
x(3_65) 0
x(3_66) 0
x(3_67) 0
x(3_68) 0
x(4_69) 0
x(4_70) 0
x(4_71) 1
x(4_72) 0
x(4_73) 0
x(4_74) 0
x(4_75) 0
x(4_76) 0
x(4_77) 0
x(4_78) 0
x(4_79) 0
x(4_80) 0
x(5_81) 0
x(5_82) 0
x(5_83) 0
x(5_84) 0
x(5_85) 0
x(5_86) 0
x(5_87) 0
x(5_88) 1
x(5_89) 0
x(5_90) 0
x(6_91) 0
x(6_92) 0
x(6_93) 0
x(6_94) 0
x(6_95) 0
x(6_96) 0
x(6_97) 0
x(6_98) 0
x(6_99) 0
x(6_100) 0
x(6_101) 1
x(6_102) 0
x(6_103) 0
x(6_104) 0
x(6_105) 0
x(6_106) 0
x(6_107) 0
x(6_108) 0
x(6_109) 0
x(7_110) 0
x(7_111) 0
x(7_112) 0
x(7_113) 0
x(7_114) 0
x(7_115) 0
x(7_116) 0
x(7_117) 0
x(7_118) 1
x(7_119) 0
x(7_120) 0
x(7_121) 0
x(7_122) 0
x(7_123) 0
x(7_124) 0
x(8_125) 0
x(8_126) 0
x(8_127) 0
x(8_128) 0
x(8_129) 0
x(8_130) 0
x(8_131) 0
x(8_132) 0
x(8_133) 1
x(8_134) 0
x(8_135) 0
x(8_136) 0
x(8_137) 0
x(8_138) 0
x(8_139) 0
x(8_140) 0
x(8_141) 0
x(8_142) 0
x(8_143) 0
x(9_144) 1
x(9_145) 0
x(9_146) 0
x(9_147) 0
x(9_148) 0
x(9_149) 0
x(9_150) 0
x(9_151) 0
x(9_152) 0
x(9_153) 0
x(9_154) 0
x(10_155) 0
x(10_156) 0
x(10_157) 0
x(10_158) 0
x(10_159) 0
x(10_160) 0
x(10_161) 0
x(10_162) 0
x(10_163) 1
x(10_164) 0
x(10_165) 0
x(10_166) 0
x(10_167) 0
x(10_168) 0
x(10_169) 0
x(10_170) 0
x(10_171) 0
x(10_172) 0
x(10_173) 0
x(10_174) 0
x(11_175) 0
x(11_176) 0
x(11_177) 1
x(11_178) 0
x(11_179) 0
x(11_180) 0
x(11_181) 0
x(11_182) 0
x(11_183) 0
x(11_184) 0
x(11_185) 0
x(11_186) 0
x(11_187) 0
x(12_188) 0
x(12_189) 0
x(12_190) 0
x(12_191) 1
x(12_192) 0
x(12_193) 0
x(12_194) 0
x(12_195) 0
x(12_196) 0
x(12_197) 0
x(12_198) 0
x(13_199) 0
x(13_200) 0
x(13_201) 0
x(13_202) 0
x(13_203) 0
x(13_204) 0
x(13_205) 0
x(13_206) 0
x(13_207) 0
x(13_208) 0
x(13_209) 0
x(13_210) 1
x(13_211) 0
x(14_212) 0
x(14_213) 0
x(14_214) 0
x(14_215) 0
x(14_216) 0
x(14_217) 0
x(14_218) 0
x(14_219) 0
x(14_220) 0
x(14_221) 0
x(14_222) 0
x(14_223) 0
x(14_224) 1
x(14_225) 0
x(14_226) 0
x(14_227) 0
x(14_228) 0
x(15_229) 0
x(15_230) 0
x(15_231) 0
x(15_232) 0
x(15_233) 0
x(15_234) 0
x(15_235) 0
x(15_236) 0
x(15_237) 1
x(15_238) 0
x(15_239) 0
x(16_240) 0
x(16_241) 1
x(16_242) 0
x(16_243) 0
x(16_244) 0
x(16_245) 0
x(16_246) 0
x(16_247) 0
x(16_248) 0
x(16_249) 0
x(16_250) 0
x(16_251) 0
x(16_252) 0
x(16_253) 0
x(16_254) 0
x(17_255) 0
x(17_256) 0
x(17_257) 0
x(17_258) 0
x(17_259) 0
x(17_260) 1
x(17_261) 0
x(17_262) 0
x(17_263) 0
x(17_264) 0
x(17_265) 0
x(17_266) 0
x(17_267) 0
x(18_268) 0
x(18_269) 1
x(18_270) 0
x(18_271) 0
x(18_272) 0
x(18_273) 0
x(18_274) 0
x(18_275) 0
x(18_276) 0
x(18_277) 0
x(18_278) 0
x(18_279) 0
x(18_280) 0
x(18_281) 0
x(18_282) 0
x(18_283) 0
x(19_284) 0
x(19_285) 0
x(19_286) 0
x(19_287) 0
x(19_288) 0
x(19_289) 0
x(19_290) 0
x(19_291) 0
x(19_292) 0
x(19_293) 0
x(19_294) 1
x(19_295) 0
x(19_296) 0
x(19_297) 0
x(19_298) 0
x(19_299) 0
x(19_300) 0
x(19_301) 0
x(19_302) 0
x(20_303) 0
x(20_304) 0
x(20_305) 0
x(20_306) 0
x(20_307) 0
x(20_308) 0
x(20_309) 1
x(20_310) 0
x(20_311) 0
x(20_312) 0
x(20_313) 0
x(20_314) 0
x(20_315) 0
x(20_316) 0
x(20_317) 0
x(20_318) 0
x(20_319) 0
x(20_320) 0
x(20_321) 0
x(21_322) 0
x(21_323) 0
x(21_324) 1
x(21_325) 0
x(21_326) 0
x(21_327) 0
x(21_328) 0
x(21_329) 0
x(21_330) 0
x(21_331) 0
x(21_332) 0
x(21_333) 0
x(21_334) 0
x(21_335) 0
x(21_336) 0
x(21_337) 0
x(21_338) 0
x(21_339) 0
x(22_340) 0
x(22_341) 0
x(22_342) 0
x(22_343) 0
x(22_344) 0
x(22_345) 0
x(22_346) 0
x(22_347) 0
x(22_348) 0
x(22_349) 0
x(22_350) 0
x(22_351) 0
x(22_352) 1
x(22_353) 0
x(22_354) 0
x(23_355) 0
x(23_356) 0
x(23_357) 0
x(23_358) 0
x(23_359) 0
x(23_360) 0
x(23_361) 0
x(23_362) 0
x(23_363) 0
x(23_364) 0
x(23_365) 0
x(23_366) 0
x(23_367) 0
x(23_368) 0
x(23_369) 0
x(23_370) 0
x(23_371) 0
x(23_372) 0
x(23_373) 0
x(23_374) 1
x(24_375) 0
x(24_376) 0
x(24_377) 0
x(24_378) 0
x(24_379) 0
x(24_380) 0
x(24_381) 0
x(24_382) 0
x(24_383) 0
x(24_384) 0
x(24_385) 0
x(24_386) 0
x(24_387) 1
x(24_388) 0
x(24_389) 0
x(24_390) 0
x(24_391) 0
x(24_392) 0
x(25_393) 0
x(25_394) 0
x(25_395) 0
x(25_396) 0
x(25_397) 0
x(25_398) 0
x(25_399) 0
x(25_400) 0
x(25_401) 0
x(25_402) 0
x(25_403) 1
x(25_404) 0
x(25_405) 0
x(25_406) 0
x(26_407) 0
x(26_408) 0
x(26_409) 0
x(26_410) 0
x(26_411) 0
x(26_412) 0
x(26_413) 0
x(26_414) 0
x(26_415) 0
x(26_416) 0
x(26_417) 0
x(26_418) 0
x(26_419) 0
x(26_420) 1
x(27_421) 0
x(27_422) 0
x(27_423) 0
x(27_424) 0
x(27_425) 0
x(27_426) 0
x(27_427) 0
x(27_428) 0
x(27_429) 0
x(27_430) 0
x(27_431) 0
x(27_432) 0
x(27_433) 0
x(27_434) 0
x(27_435) 0
x(27_436) 0
x(27_437) 1
x(27_438) 0
x(28_439) 0
x(28_440) 0
x(28_441) 0
x(28_442) 0
x(28_443) 0
x(28_444) 0
x(28_445) 0
x(28_446) 1
x(28_447) 0
x(28_448) 0
x(28_449) 0
x(28_450) 0
x(29_451) 1
x(29_452) 0
x(29_453) 0
x(29_454) 0
x(29_455) 0
x(29_456) 0
x(29_457) 0
x(29_458) 0
x(29_459) 0
x(29_460) 0
x(29_461) 0
x(29_462) 0
x(29_463) 0
x(29_464) 0
x(29_465) 0
x(29_466) 0
x(29_467) 0
x(29_468) 0
x(30_469) 0
x(30_470) 0
x(30_471) 0
x(30_472) 1
x(30_473) 0
x(30_474) 0
x(30_475) 0
x(30_476) 0
x(30_477) 0
x(30_478) 0
x(30_479) 0
x(30_480) 0
x(30_481) 0
x(30_482) 0
x(30_483) 0
x(30_484) 0
x(30_485) 0
x(30_486) 0
x(31_487) 0
x(31_488) 0
x(31_489) 0
x(31_490) 0
x(31_491) 0
x(31_492) 0
x(31_493) 0
x(31_494) 1
x(31_495) 0
x(31_496) 0
x(31_497) 0
x(31_498) 0
x(31_499) 0
x(31_500) 0
x(31_501) 0
x(31_502) 0
x(32_503) 1
x(32_504) 0
x(32_505) 0
x(32_506) 0
x(32_507) 0
x(32_508) 0
x(32_509) 0
x(32_510) 0
x(32_511) 0
x(32_512) 0
x(33_513) 1
x(33_514) 0
x(33_515) 0
x(33_516) 0
x(33_517) 0
x(33_518) 0
x(33_519) 0
x(33_520) 0
x(33_521) 0
x(33_522) 0
x(33_523) 0
x(33_524) 0
x(33_525) 0
x(33_526) 0
x(33_527) 0
x(33_528) 0
x(33_529) 0
x(33_530) 0
x(33_531) 0
x(34_532) 0
x(34_533) 0
x(34_534) 0
x(34_535) 0
x(34_536) 0
x(34_537) 0
x(34_538) 0
x(34_539) 0
x(34_540) 0
x(34_541) 0
x(34_542) 0
x(34_543) 1
x(34_544) 0
x(34_545) 0
x(34_546) 0
x(34_547) 0
x(34_548) 0
x(34_549) 0
x(34_550) 0
x(35_551) 0
x(35_552) 0
x(35_553) 0
x(35_554) 0
x(35_555) 0
x(35_556) 0
x(35_557) 1
x(35_558) 0
x(35_559) 0
x(35_560) 0
x(35_561) 0
x(35_562) 0
x(35_563) 0
x(35_564) 0
x(35_565) 0
x(35_566) 0
x(35_567) 0
x(35_568) 0
x(36_569) 0
x(36_570) 0
x(36_571) 0
x(36_572) 0
x(36_573) 0
x(36_574) 0
x(36_575) 0
x(36_576) 1
x(36_577) 0
x(36_578) 0
x(36_579) 0
x(36_580) 0
x(36_581) 0
x(37_582) 1
x(37_583) 0
x(37_584) 0
x(37_585) 0
x(37_586) 0
x(37_587) 0
x(37_588) 0
x(37_589) 0
x(37_590) 0
x(37_591) 0
x(37_592) 0
x(37_593) 0
x(37_594) 0
x(37_595) 0
x(37_596) 0
x(37_597) 0
x(38_598) 0
x(38_599) 0
x(38_600) 0
x(38_601) 0
x(38_602) 0
x(38_603) 0
x(38_604) 0
x(38_605) 0
x(38_606) 0
x(38_607) 0
x(38_608) 0
x(38_609) 0
x(38_610) 1
x(38_611) 0
x(38_612) 0
x(38_613) 0
x(38_614) 0
x(38_615) 0
x(38_616) 0
x(38_617) 0
x_1_0 1.5500768946949393e+02
s_1_0 0
z_1_0 0
x_1_1 1.5435434163315222e+02
s_1_1 0
z_1_1 0
x_1_2 0
s_1_2 5.6744438037276268e-01
z_1_2 1
x_1_3 1.5596741637773812e+02
s_1_3 0
z_1_3 0
x_1_4 1.5359161890530959e+02
s_1_4 0
z_1_4 0
x_1_5 1.5515348040731624e+02
s_1_5 0
z_1_5 0
x_1_6 1.5376027704775333e+02
s_1_6 0
z_1_6 0
x_1_7 1.5315741496239207e+02
s_1_7 0
z_1_7 0
x_1_8 1.5483069620467722e+02
s_1_8 0
z_1_8 0
x_1_9 1.5494350638939068e+02
s_1_9 0
z_1_9 0
x_1_10 1.5379703649878502e+02
s_1_10 0
z_1_10 0
x_1_11 0
s_1_11 4.6441672044602456e-01
z_1_11 1
x_1_12 0
s_1_12 6.8259234470315278e-01
z_1_12 1
x_1_13 0
s_1_13 6.2221383675932884e-01
z_1_13 1
x_1_14 1.5385481932945549e+02
s_1_14 0
z_1_14 0
x_1_15 1.5583760280301794e+02
s_1_15 0
z_1_15 0
x_1_16 0
s_1_16 2.4891168484464288e-01
z_1_16 1
x_1_17 0
s_1_17 2.6830624148715287e-01
z_1_17 1
x_1_18 0
s_1_18 6.2980512093054131e-01
z_1_18 1
x_1_19 0
s_1_19 5.3400449291802943e-01
z_1_19 1
x_1_20 1.5582508182968013e+02
s_1_20 0
z_1_20 0
x_1_21 1.5375150305917487e+02
s_1_21 0
z_1_21 0
x_1_22 1.5506705840001814e+02
s_1_22 0
z_1_22 0
x_1_23 0
s_1_23 3.3384832111187279e-01
z_1_23 1
x_1_24 1.5438785010148786e+02
s_1_24 0
z_1_24 0
x_1_25 1.5576256521139294e+02
s_1_25 0
z_1_25 0
x_1_26 0
s_1_26 5.1968915760517120e-01
z_1_26 1
x_1_27 1.5520467133866623e+02
s_1_27 0
z_1_27 0
x_1_28 1.5497375629935414e+02
s_1_28 0
z_1_28 0
x_1_29 1.5367888633953407e+02
s_1_29 0
z_1_29 0
x_1_30 0
s_1_30 4.7418640332762152e-01
z_1_30 1
x_1_31 0
s_1_31 7.5976669474039227e-01
z_1_31 1
x_1_32 0
s_1_32 4.4299926952226087e-01
z_1_32 1
x_1_33 1.5593100586743094e+02
s_1_33 0
z_1_33 0
x_1_34 1.5411090139253065e+02
s_1_34 0
z_1_34 0
x_1_35 1.5572304797219113e+02
s_1_35 0
z_1_35 0
x_1_36 0
s_1_36 7.6431208141730167e-01
z_1_36 1
x_1_37 1.5578776829410344e+02
s_1_37 0
z_1_37 0
x_1_38 1.5460198654048145e+02
s_1_38 0
z_1_38 0
x_1_39 0
s_1_39 5.7558804564177990e-01
z_1_39 1
x_1_40 0
s_1_40 6.4290484617231414e-01
z_1_40 1
x_1_41 1.5347043756581843e+02
s_1_41 0
z_1_41 0
x_1_42 1.5517424699245021e+02
s_1_42 0
z_1_42 0
x_1_43 0
s_1_43 6.1814327715546824e-01
z_1_43 1
x_1_44 0
s_1_44 2.8466798947192729e-01
z_1_44 1
x_1_45 1.5469055182859302e+02
s_1_45 0
z_1_45 0
x_1_46 1.5466081674396992e+02
s_1_46 0
z_1_46 0
x_1_47 1.5168779390957206e+02
s_1_47 0
z_1_47 0
x_1_48 1.5343532381471596e+02
s_1_48 0
z_1_48 0
x_1_49 1.5564334544539452e+02
s_1_49 0
z_1_49 0
x_1_50 1.5568434430356137e+02
s_1_50 0
z_1_50 0
x_1_51 1.5473354924470186e+02
s_1_51 0
z_1_51 0
x_1_52 1.5556684011500329e+02
s_1_52 0
z_1_52 0
x_1_53 1.5515245648892596e+02
s_1_53 0
z_1_53 0
x_1_54 1.5437831122614443e+02
s_1_54 0
z_1_54 0
x_1_55 0
s_1_55 4.1521597738028504e-01
z_1_55 1
x_1_56 0
s_1_56 5.5522766377544031e-01
z_1_56 1
x_1_57 0
s_1_57 7.6751776508172043e-01
z_1_57 1
x_1_58 0
s_1_58 2.5407735758926719e-01
z_1_58 1
x_1_59 1.5565132585295942e+02
s_1_59 0
z_1_59 0
x_1_60 1.5374538408033550e+02
s_1_60 0
z_1_60 0
x_1_61 0
s_1_61 3.3781411361997016e-01
z_1_61 1
x_1_62 1.5355265401629731e+02
s_1_62 0
z_1_62 0
x_1_63 1.5597032104944810e+02
s_1_63 0
z_1_63 0
x_1_64 1.5493556541856378e+02
s_1_64 0
z_1_64 0
x_1_65 0
s_1_65 1.1573904737451812e-01
z_1_65 1
x_1_66 0
s_1_66 5.4278189790784381e-01
z_1_66 1
x_1_67 1.5340189998224378e+02
s_1_67 0
z_1_67 0
x_1_68 1.5437411143025383e+02
s_1_68 0
z_1_68 0
x_1_69 1.5351560601638630e+02
s_1_69 0
z_1_69 0
x_1_70 0
s_1_70 4.8488197545520961e-01
z_1_70 1
x_1_71 1.5580083896173164e+02
s_1_71 0
z_1_71 0
x_1_72 1.5580487827770412e+02
s_1_72 0
z_1_72 0
x_1_73 1.5530844548926689e+02
s_1_73 0
z_1_73 0
x_1_74 0
s_1_74 5.1924842991866171e-01
z_1_74 1
x_1_75 0
s_1_75 0.632937851245515
z_1_75 1
x_1_76 1.5450154965044931e+02
s_1_76 0
z_1_76 0
x_1_77 1.5509654659009539e+02
s_1_77 0
z_1_77 0
x_1_78 1.5566169510269538e+02
s_1_78 0
z_1_78 0
x_1_79 1.5601284444378689e+02
s_1_79 0
z_1_79 0
x_1_80 0
s_1_80 5.8823219593614340e-01
z_1_80 1
x_1_81 1.5538886925764382e+02
s_1_81 0
z_1_81 0
x_1_82 1.5484078542515635e+02
s_1_82 0
z_1_82 0
x_1_83 1.5511351856496185e+02
s_1_83 0
z_1_83 0
x_1_84 1.5573588774960808e+02
s_1_84 0
z_1_84 0
x_1_85 1.5467425761558115e+02
s_1_85 0
z_1_85 0
x_1_86 1.5558886100724339e+02
s_1_86 0
z_1_86 0
x_1_87 0
s_1_87 0.506822498733527
z_1_87 1
x_1_88 0
s_1_88 4.6061494643799961e-01
z_1_88 1
x_1_89 0
s_1_89 5.1840466201247182e-01
z_1_89 1
x_1_90 0
s_1_90 2.7842546859938011e-01
z_1_90 1
x_1_91 0
s_1_91 6.1137488679378293e-01
z_1_91 1
x_1_92 1.5426108294519327e+02
s_1_92 0
z_1_92 0
x_1_93 1.5553734836331569e+02
s_1_93 0
z_1_93 0
x_1_94 1.5345933709805831e+02
s_1_94 0
z_1_94 0
x_1_95 1.5440561878244625e+02
s_1_95 0
z_1_95 0
x_1_96 1.5378672663494945e+02
s_1_96 0
z_1_96 0
x_1_97 1.5527838346478529e+02
s_1_97 0
z_1_97 0
x_1_98 0
s_1_98 6.9606743636541069e-01
z_1_98 1
x_1_99 0
s_1_99 2.4455150798894465e-01
z_1_99 1
x_1_100 1.5363298695348203e+02
s_1_100 0
z_1_100 0
x_1_101 0
s_1_101 4.8767069727182388e-01
z_1_101 1
x_1_102 0
s_1_102 0.664850116125308
z_1_102 1
x_1_103 0
s_1_103 5.6589906154840719e-01
z_1_103 1
x_1_104 1.5413972013245802e+02
s_1_104 0
z_1_104 0
x_1_105 0
s_1_105 4.2915213142987341e-01
z_1_105 1
x_1_106 1.5520883214939386e+02
s_1_106 0
z_1_106 0
x_1_107 0
s_1_107 1.5995643485803157e-01
z_1_107 1
x_1_108 1.5564279881631956e+02
s_1_108 0
z_1_108 0
x_1_109 1.5305458929622546e+02
s_1_109 0
z_1_109 0
x_1_110 1.5325075605324855e+02
s_1_110 0
z_1_110 0
x_1_111 1.5389638377260417e+02
s_1_111 0
z_1_111 0
x_1_112 0
s_1_112 5.4122903101233533e-01
z_1_112 1
x_1_113 0
s_1_113 2.4898501369170845e-01
z_1_113 1
x_1_114 0
s_1_114 5.9807757823728025e-01
z_1_114 1
x_1_115 1.5365754885040224e+02
s_1_115 0
z_1_115 0
x_1_116 0
s_1_116 5.8835967956110835e-01
z_1_116 1
x_1_117 1.5563793083187193e+02
s_1_117 0
z_1_117 0
x_1_118 0
s_1_118 4.6816034114453942e-01
z_1_118 1
x_1_119 1.5485186465270817e+02
s_1_119 0
z_1_119 0
x_1_120 1.5552434222213924e+02
s_1_120 0
z_1_120 0
x_1_121 0
s_1_121 2.5771812559105456e-01
z_1_121 1
x_1_122 1.5563110688142478e+02
s_1_122 0
z_1_122 0
x_1_123 1.5409165578708053e+02
s_1_123 0
z_1_123 0
x_1_124 1.5584736967389472e+02
s_1_124 0
z_1_124 0
x_1_125 0
s_1_125 4.6091919788159430e-01
z_1_125 1
x_1_126 1.5592927862145007e+02
s_1_126 0
z_1_126 0
x_1_127 0
s_1_127 7.3020012141205370e-01
z_1_127 1
x_1_128 0
s_1_128 6.7109768465161324e-01
z_1_128 1
x_1_129 0
s_1_129 5.0394002904067747e-01
z_1_129 1
x_1_130 1.5518239952903241e+02
s_1_130 0
z_1_130 0
x_1_131 1.5405558960419148e+02
s_1_131 0
z_1_131 0
x_1_132 1.5437154773902148e+02
s_1_132 0
z_1_132 0
x_1_133 1.5444829844310880e+02
s_1_133 0
z_1_133 0
x_1_134 0
s_1_134 1.8846887911786325e-01
z_1_134 1
x_1_135 1.5458403106790502e+02
s_1_135 0
z_1_135 0
x_1_136 0
s_1_136 4.7889433294767514e-01
z_1_136 1
x_1_137 0
s_1_137 6.9119568692985922e-01
z_1_137 1
x_1_138 1.5506857722206041e+02
s_1_138 0
z_1_138 0
x_1_139 0
s_1_139 2.5127058522775769e-01
z_1_139 1
x_1_140 1.5570842786846333e+02
s_1_140 0
z_1_140 0
x_1_141 0
s_1_141 6.0694041036185808e-01
z_1_141 1
x_1_142 1.5577155488822609e+02
s_1_142 0
z_1_142 0
x_1_143 0
s_1_143 4.8230937373591587e-01
z_1_143 1
x_1_144 0
s_1_144 7.3243427253328264e-01
z_1_144 1
x_1_145 1.5523634555516765e+02
s_1_145 0
z_1_145 0
x_1_146 1.5426882099453360e+02
s_1_146 0
z_1_146 0
x_1_147 1.5547553374595009e+02
s_1_147 0
z_1_147 0
x_1_148 1.5378486592881382e+02
s_1_148 0
z_1_148 0
x_1_149 1.5422500544507056e+02
s_1_149 0
z_1_149 0
x_1_150 1.5502176122087985e+02
s_1_150 0
z_1_150 0
x_1_151 1.5371402413025498e+02
s_1_151 0
z_1_151 0
x_1_152 1.5409836681373417e+02
s_1_152 0
z_1_152 0
x_1_153 1.5567710534669459e+02
s_1_153 0
z_1_153 0
x_1_154 1.5491428526118398e+02
s_1_154 0
z_1_154 0
x_1_155 0
s_1_155 4.3036924465559423e-01
z_1_155 1
x_1_156 0
s_1_156 5.8893672196427360e-01
z_1_156 1
x_1_157 0
s_1_157 3.8228796282783151e-01
z_1_157 1
x_1_158 1.5425753197539598e+02
s_1_158 0
z_1_158 0
x_1_159 0
s_1_159 4.9865872564259917e-01
z_1_159 1
x_2_0 9.8001432354238743e+04
